% Variable que contiene número de rectangulos
par int: NR = 15;

% Vector que contiene el Alto
array[1..NR] of par int: Alto = [10,15,20,25,20,25,15,10,20,15,10,15,20,10,45];
% Vector que contiene el Ancho
array[1..NR] of par int: Ancho = [15,5,15,10,25,10,15,20,10,10,10,20,5,5,5];